\* Problem: atelier *\

Maximize
 obj: + 13 x1,1 + 24 x1,2 + 31 x1,3 + 19 x1,4 + 40 x1,5 + 29 x1,6
 + 18 x2,1 + 25 x2,2 + 30 x2,3 + 15 x2,4 + 43 x2,5 + 22 x2,6 + 20 x3,1
 + 20 x3,2 + 27 x3,3 + 25 x3,4 + 34 x3,5 + 33 x3,6 + 23 x4,1 + 26 x4,2
 + 28 x4,3 + 18 x4,4 + 37 x4,5 + 30 x4,6 + 28 x5,1 + 33 x5,2 + 34 x5,3
 + 17 x5,4 + 38 x5,5 + 20 x5,6 + 19 x6,1 + 36 x6,2 + 25 x6,3 + 27 x6,4
 + 45 x6,5 + 24 x6,6

Subject To
 personne1: + x1,6 + x1,5 + x1,4 + x1,3 + x1,2 + x1,1 = 1
 personne2: + x2,6 + x2,5 + x2,4 + x2,3 + x2,2 + x2,1 = 1
 personne3: + x3,6 + x3,5 + x3,4 + x3,3 + x3,2 + x3,1 = 1
 personne4: + x4,6 + x4,5 + x4,4 + x4,3 + x4,2 + x4,1 = 1
 personne5: + x5,6 + x5,5 + x5,4 + x5,3 + x5,2 + x5,1 = 1
 personne6: + x6,6 + x6,5 + x6,4 + x6,3 + x6,2 + x6,1 = 1
 machine1: + x6,1 + x5,1 + x4,1 + x3,1 + x2,1 + x1,1 = 1
 machine2: + x6,2 + x5,2 + x4,2 + x3,2 + x2,2 + x1,2 = 1
 machine3: + x6,3 + x5,3 + x4,3 + x3,3 + x2,3 + x1,3 = 1
 machine4: + x6,4 + x5,4 + x4,4 + x3,4 + x2,4 + x1,4 = 1
 machine5: + x6,5 + x5,5 + x4,5 + x3,5 + x2,5 + x1,5 = 1
 machine6: + x6,6 + x5,6 + x4,6 + x3,6 + x2,6 + x1,6 = 1

Bounds
 0 <= x1,1 <= 1
 0 <= x1,2 <= 1
 0 <= x1,3 <= 1
 0 <= x1,4 <= 1
 0 <= x1,5 <= 1
 0 <= x1,6 <= 1
 0 <= x2,1 <= 1
 0 <= x2,2 <= 1
 0 <= x2,3 <= 1
 0 <= x2,4 <= 1
 0 <= x2,5 <= 1
 0 <= x2,6 <= 1
 0 <= x3,1 <= 1
 0 <= x3,2 <= 1
 0 <= x3,3 <= 1
 0 <= x3,4 <= 1
 0 <= x3,5 <= 1
 0 <= x3,6 <= 1
 0 <= x4,1 <= 1
 0 <= x4,2 <= 1
 0 <= x4,3 <= 1
 0 <= x4,4 <= 1
 0 <= x4,5 <= 1
 0 <= x4,6 <= 1
 0 <= x5,1 <= 1
 0 <= x5,2 <= 1
 0 <= x5,3 <= 1
 0 <= x5,4 <= 1
 0 <= x5,5 <= 1
 0 <= x5,6 <= 1
 0 <= x6,1 <= 1
 0 <= x6,2 <= 1
 0 <= x6,3 <= 1
 0 <= x6,4 <= 1
 0 <= x6,5 <= 1
 0 <= x6,6 <= 1

Generals
 x1,1
 x1,2
 x1,3
 x1,4
 x1,5
 x1,6
 x2,1
 x2,2
 x2,3
 x2,4
 x2,5
 x2,6
 x3,1
 x3,2
 x3,3
 x3,4
 x3,5
 x3,6
 x4,1
 x4,2
 x4,3
 x4,4
 x4,5
 x4,6
 x5,1
 x5,2
 x5,3
 x5,4
 x5,5
 x5,6
 x6,1
 x6,2
 x6,3
 x6,4
 x6,5
 x6,6

End
